cra-25/qc/qc.smt2
(declare-const Bracket_1 Real)
(declare-const Bracket_2 Real)
(declare-const Bracket_3 Real)
(declare-const Bracket_4 Real)
(declare-const Bracket_5 Real)
(declare-const Bracket_6 Real)
(declare-const Bracket_7 Real)
(declare-const FinalTaxes Real)
(declare-const Income Real)

(assert (=> (<= Income 49279) (= Bracket_1 (* Income 0.0506))))
(assert (=> (> Income 49279) (= Bracket_1 (* 49279 0.0506))))
(assert (=> (<= Income 49279) (= Bracket_2 0)))
(assert (=> (and (> Income 49279) (<= Income 98560)) (= Bracket_2 (* (- Income 49279) 0.077))))
(assert (=> (> Income 98560) (= Bracket_2 (* (- 98560 49279) 0.077))))
(assert (=> (<= Income 98560) (= Bracket_3 0)))
(assert (=> (and (> Income 98560) (<= Income 113158)) (= Bracket_3 (* (- Income 98560) 0.105))))
(assert (=> (> Income 113158) (= Bracket_3 (* (- 113158 98560) 0.105))))
(assert (=> (<= Income 113158) (= Bracket_4 0)))
(assert (=> (and (> Income 113158) (<= Income 137407)) (= Bracket_4 (* (- Income 113158) 0.1229))))
(assert (=> (> Income 137407) (= Bracket_4 (* (- 137407 113158) 0.1229))))
(assert (=> (<= Income 137407) (= Bracket_5 0)))
(assert (=> (and (> Income 137407) (<= Income 186306)) (= Bracket_5 (* (- Income 137407) 0.147))))
(assert (=> (> Income 186306) (= Bracket_5 (* (- 186306 137407) 0.147))))
(assert (=> (<= Income 186306) (= Bracket_6 0)))
(assert (=> (and (> Income 186306) (<= Income 259829)) (= Bracket_6 (* (- Income 186306) 0.168))))
(assert (=> (> Income 259829) (= Bracket_6 (* (- 259829 186306) 0.168))))
(assert (=> (<= Income 259829) (= Bracket_7 0)))
(assert (=> (> Income 259829) (= Bracket_7 (* (- Income 259829) 0.205))))
(assert (= FinalTaxes (+ Bracket_1 Bracket_2 Bracket_3 Bracket_4 Bracket_5 Bracket_6 Bracket_7)))
