taxes/qc.txt
Taxable income	Rate
$53,255 or less	14%
More than $53,255 but not more than $106,495	19%
More than $106,495 but not more than $129,590	24%
More than $129,590	25.75%
